1 -1 2 0
1 -1 -3 0
1 -1 -4 0
1 -1 5 0
1 -1 6 0
1 -1 -7 0
1 -2 8 0
1 -2 4 0
1 -2 -1 0
1 2 5 0
1 2 -7 0
1 -9 10 0
1 -9 -11 0
1 9 -3 0
1 9 -12 0
1 9 13 0
1 -9 -14 0
1 9 -5 0
1 15 -10 0
1 15 11 0
1 15 16 0
1 15 -3 0
1 15 -13 0
1 15 -9 0
1 15 7 0
1 4 -17 0
1 4 18 0
1 4 -19 0
1 4 -15 0
1 -4 2 0
1 4 -20 0
1 -4 21 0
1 4 22 0
1 -4 -23 0
1 4 9 0
1 4 7 0
1 -7 24 0
1 7 -18 0
1 -7 19 0
1 -7 -15 0
1 7 2 0
1 7 -21 0
1 7 22 0
1 -7 23 0
1 -7 9 0
1 7 -1 0
1 3 -17 0
1 3 -25 0
1 3 -15 0
1 -3 2 0
1 -3 -26 0
1 -3 -9 0
1 3 -1 0
1 -3 5 0
1 -5 -3 0
1 5 21 0
1 -5 27 0
1 -5 28 0
1 -5 9 0
1 5 1 0
1 -5 -29 0
1 -23 -10 0
1 -23 11 0
1 23 -19 0
1 23 -4 0
1 23 -12 0
1 -23 28 0
1 -23 7 0
1 -19 10 0
1 -19 30 0
1 -19 -12 0
1 19 13 0
1 -19 23 0
1 19 -7 0
1 22 18 0
1 -22 31 0
1 -22 -12 0
1 -22 32 0
1 18 10 0
1 18 -31 0
1 18 -25 0
1 -18 -13 0
1 18 -22 0
1 18 -32 0
1 -13 11 0
1 -13 -18 0
1 -13 -33 0
1 13 -34 0
1 13 -35 0
1 13 36 0
1 11 37 0
1 11 -38 0
1 -11 -39 0
1 -11 -19 0
1 11 40 0
1 -11 -34 0
1 -11 13 0
1 11 23 0
1 11 9 0
1 11 -36 0
1 -12 41 0
1 -12 15 0
1 12 21 0
1 -12 -22 0
1 -12 -23 0
1 12 -36 0
1 -10 41 0
1 -10 42 0
1 -10 -17 0
1 10 -18 0
1 -10 -19 0
1 10 15 0
1 -10 40 0
1 10 -12 0
1 10 -43 0
1 -10 -23 0
1 10 9 0
1 10 36 0
1 -34 11 0
1 -34 31 0
1 34 44 0
1 -34 13 0
1 -34 -32 0
1 38 -11 0
1 -38 -17 0
1 38 -31 0
1 38 34 0
1 38 -13 0
1 38 -32 0
1 38 -45 0
1 33 37 0
1 33 -11 0
1 33 -44 0
1 33 -43 0
1 -33 13 0
1 -33 -32 0
1 -33 45 0
1 -37 -41 0
1 -37 -11 0
1 -37 44 0
1 -37 13 0
1 37 32 0
1 -37 -45 0
1 45 -18 0
1 45 -33 0
1 45 46 0
1 -45 47 0
1 -44 37 0
1 44 -38 0
1 -44 18 0
1 -44 -48 0
1 44 49 0
1 -44 34 0
1 44 -45 0
1 -32 38 0
1 32 18 0
1 32 -31 0
1 -32 -50 0
1 32 -40 0
1 32 -33 0
1 -32 34 0
1 32 22 0
1 32 -51 0
1 32 47 0
1 32 -52 0
1 32 36 0
1 31 37 0
1 -31 -18 0
1 31 -53 0
1 31 -49 0
1 -31 -40 0
1 -31 33 0
1 31 34 0
1 31 22 0
1 31 32 0
1 -31 -47 0
1 -31 -52 0
1 -6 -54 0
1 6 -55 0
1 6 8 0
1 -6 -56 0
1 6 1 0
1 -8 -54 0
1 -8 -2 0
1 -8 -57 0
1 8 6 0
1 -14 -55 0
1 14 58 0
1 -14 56 0
1 14 -57 0
1 -14 -59 0
1 -14 60 0
1 -14 -9 0
1 -16 -15 0
1 -16 56 0
1 16 -57 0
1 16 59 0
1 -16 -14 0
1 -55 25 0
1 55 61 0
1 55 30 0
1 55 57 0
1 55 -27 0
1 -55 -28 0
1 -55 14 0
1 57 55 0
1 57 25 0
1 57 -30 0
1 -57 -16 0
1 -57 -8 0
1 57 62 0
1 57 -28 0
1 -57 14 0
1 -57 -6 0
1 -54 -63 0
1 54 -8 0
1 -54 56 0
1 54 -14 0
1 -56 -54 0
1 56 16 0
1 56 8 0
1 -56 -64 0
1 56 -14 0
1 -56 -6 0
1 28 -65 0
1 28 -30 0
1 28 -58 0
1 -28 -3 0
1 -28 -59 0
1 -28 -60 0
1 -28 -5 0
1 -30 -19 0
1 -30 -59 0
1 30 -60 0
1 -30 28 0
1 30 5 0
1 -27 -25 0
1 -27 -66 0
1 -27 -3 0
1 27 -22 0
1 27 -67 0
1 -27 -68 0
1 25 55 0
1 25 -18 0
1 -25 -65 0
1 -25 -66 0
1 25 -69 0
1 -25 -3 0
1 25 -59 0
1 25 27 0
1 25 -68 0
1 -25 -5 0
1 58 70 0
1 -58 -60 0
1 58 17 0
1 58 -25 0
1 -58 30 0
1 58 -71 0
1 -58 -43 0
1 -58 21 0
1 -58 -27 0
1 -60 -70 0
1 60 -17 0
1 -60 -58 0
1 60 -72 0
1 60 -43 0
1 -60 21 0
1 60 27 0
1 60 73 0
1 -60 -28 0
1 -65 -74 0
1 -65 30 0
1 -65 16 0
1 -65 -72 0
1 65 -59 0
1 65 -27 0
1 -65 -28 0
1 -59 -70 0
1 59 25 0
1 -59 30 0
1 59 16 0
1 -59 -72 0
1 59 -27 0
1 59 -75 0
1 -59 28 0
1 -59 14 0
1 21 -10 0
1 21 -17 0
1 21 69 0
1 21 -3 0
1 -21 -4 0
1 21 12 0
1 21 34 0
1 -21 60 0
1 -21 67 0
1 21 -5 0
1 21 7 0
1 -17 10 0
1 -17 -38 0
1 17 -58 0
1 -17 69 0
1 -17 3 0
1 17 -4 0
1 17 -12 0
1 -17 -67 0
1 -17 68 0
1 17 7 0
1 43 -10 0
1 -43 41 0
1 43 58 0
1 -43 69 0
1 43 -26 0
1 -43 -20 0
1 43 -67 0
1 -43 -68 0
1 -41 -37 0
1 -41 -10 0
1 -41 -58 0
1 41 66 0
1 -41 26 0
1 -41 -20 0
1 41 -12 0
1 -41 -43 0
1 41 -60 0
1 -41 67 0
1 41 -29 0
1 69 -25 0
1 69 76 0
1 -69 -50 0
1 -69 -77 0
1 -69 -21 0
1 -69 -78 0
1 69 36 0
1 68 41 0
1 -68 -17 0
1 -68 76 0
1 -68 -50 0
1 68 -40 0
1 -68 43 0
1 -68 -27 0
1 68 -78 0
1 68 -52 0
1 66 70 0
1 66 -41 0
1 -66 25 0
1 -66 76 0
1 -66 43 0
1 66 21 0
1 -66 -67 0
1 -66 -78 0
1 -66 -79 0
1 67 70 0
1 -67 -41 0
1 -67 17 0
1 67 -66 0
1 67 -76 0
1 67 80 0
1 67 72 0
1 -67 21 0
1 -67 27 0
1 -67 81 0
1 67 -79 0
1 -40 -24 0
1 40 10 0
1 40 11 0
1 40 31 0
1 40 -69 0
1 40 20 0
1 40 -32 0
1 40 -68 0
1 -40 -29 0
1 40 -36 0
1 36 11 0
1 36 -31 0
1 36 69 0
1 -36 -40 0
1 -36 20 0
1 36 -12 0
1 -36 32 0
1 36 -68 0
1 36 -29 0
1 50 -24 0
1 -50 -39 0
1 50 80 0
1 50 82 0
1 -50 -35 0
1 50 32 0
1 50 68 0
1 -50 -29 0
1 -52 -24 0
1 -52 -42 0
1 -52 -39 0
1 52 31 0
1 52 -69 0
1 -52 50 0
1 52 35 0
1 52 32 0
1 -52 29 0
1 52 -68 0
1 -52 -79 0
1 20 -24 0
1 20 41 0
1 -20 -83 0
1 20 -49 0
1 -20 -50 0
1 -20 40 0
1 -20 -4 0
1 20 43 0
1 -20 84 0
1 -20 85 0
1 -20 47 0
1 20 52 0
1 20 36 0
1 24 83 0
1 24 20 0
1 24 7 0
1 -24 -84 0
1 -24 47 0
1 24 52 0
1 24 -36 0
1 -26 -41 0
1 26 -86 0
1 26 -76 0
1 26 -3 0
1 -26 40 0
1 -26 43 0
1 -26 84 0
1 26 -87 0
1 26 -78 0
1 26 -52 0
1 -26 29 0
1 -26 36 0
1 29 -41 0
1 -29 -76 0
1 29 40 0
1 29 -5 0
1 29 84 0
1 -29 -78 0
1 29 -52 0
1 29 -36 0
1 49 24 0
1 49 42 0
1 -49 31 0
1 -49 39 0
1 49 -76 0
1 49 -82 0
1 49 35 0
1 -49 45 0
1 -47 42 0
1 -47 -39 0
1 47 -31 0
1 47 -49 0
1 47 -82 0
1 -47 -35 0
1 -47 -32 0
1 -47 45 0
1 88 24 0
1 88 42 0
1 -88 39 0
1 88 -53 0
1 88 -85 0
1 -88 48 0
1 88 86 0
1 -88 20 0
1 88 82 0
1 -88 -35 0
1 -88 -51 0
1 -88 46 0
1 -85 -24 0
1 -85 53 0
1 -85 -48 0
1 -85 -88 0
1 -85 -82 0
1 -85 35 0
1 -85 -51 0
1 85 46 0
1 85 -87 0
1 -35 -39 0
1 35 88 0
1 -35 -13 0
1 -35 89 0
1 35 -85 0
1 -35 52 0
1 39 90 0
1 39 -91 0
1 39 -88 0
1 39 -49 0
1 -39 35 0
1 39 92 0
1 -39 85 0
1 -39 -52 0
1 82 42 0
1 82 93 0
1 -82 -83 0
1 -82 -88 0
1 82 49 0
1 82 12 0
1 -82 94 0
1 82 47 0
1 82 -52 0
1 -42 -10 0
1 -42 83 0
1 -42 82 0
1 42 94 0
1 42 -52 0
1 91 39 0
1 91 48 0
1 -91 -83 0
1 91 -92 0
1 -91 46 0
1 -92 -53 0
1 92 48 0
1 -92 35 0
1 -92 -51 0
1 90 -39 0
1 -90 53 0
1 -90 48 0
1 90 -89 0
1 -89 -39 0
1 89 -90 0
1 89 48 0
1 -89 -94 0
1 89 51 0
1 89 46 0
1 46 -90 0
1 46 -91 0
1 46 -48 0
1 46 88 0
1 46 89 0
1 -46 -92 0
1 46 45 0
1 46 -85 0
1 -48 -90 0
1 48 -44 0
1 48 91 0
1 48 -88 0
1 48 -92 0
1 -48 -46 0
1 -51 -90 0
1 -51 53 0
1 51 -91 0
1 -51 -88 0
1 51 -89 0
1 51 -92 0
1 -51 85 0
1 53 -31 0
1 53 90 0
1 53 88 0
1 53 -51 0
1 -72 70 0
1 -72 -63 0
1 -72 61 0
1 -72 65 0
1 72 58 0
1 -72 66 0
1 72 64 0
1 72 62 0
1 -72 59 0
1 72 -60 0
1 -72 67 0
1 70 -63 0
1 -70 -61 0
1 70 -58 0
1 70 -66 0
1 70 -64 0
1 -70 -62 0
1 70 -67 0
1 70 -36 0
1 80 63 0
1 80 74 0
1 80 -71 0
1 80 50 0
1 80 64 0
1 -80 -62 0
1 80 75 0
1 -80 -73 0
1 80 67 0
1 80 -79 0
1 -79 63 0
1 79 74 0
1 -79 -71 0
1 79 80 0
1 -79 -62 0
1 -79 75 0
1 79 67 0
1 79 52 0
1 61 -70 0
1 -61 -55 0
1 61 -86 0
1 -61 76 0
1 61 80 0
1 61 -72 0
1 -61 -87 0
1 -62 61 0
1 62 -76 0
1 62 -57 0
1 -62 -78 0
1 -62 -79 0
1 63 70 0
1 -63 -54 0
1 -63 -80 0
1 -63 72 0
1 63 64 0
1 64 -70 0
1 -64 63 0
1 -64 -80 0
1 -64 72 0
1 -64 56 0
1 64 -79 0
1 76 61 0
1 76 71 0
1 76 -66 0
1 -76 69 0
1 76 62 0
1 -76 -75 0
1 76 -73 0
1 -76 29 0
1 78 -61 0
1 78 74 0
1 -78 71 0
1 78 66 0
1 -78 -69 0
1 78 -26 0
1 -78 62 0
1 -78 -73 0
1 78 67 0
1 -78 -47 0
1 78 29 0
1 -86 61 0
1 -86 81 0
1 -86 74 0
1 -86 -71 0
1 -86 88 0
1 86 95 0
1 86 -77 0
1 -86 -26 0
1 -86 -62 0
1 -86 75 0
1 -86 73 0
1 -86 87 0
1 86 96 0
1 87 61 0
1 87 74 0
1 87 -71 0
1 87 86 0
1 -87 -26 0
1 -87 75 0
1 87 -73 0
1 -87 85 0
1 -87 81 0
1 87 96 0
1 71 -73 0
1 -71 83 0
1 -71 86 0
1 71 80 0
1 -71 84 0
1 -71 -87 0
1 71 78 0
1 -71 -79 0
1 -73 93 0
1 -73 -83 0
1 -73 -71 0
1 -73 86 0
1 73 -76 0
1 73 80 0
1 73 94 0
1 -73 84 0
1 73 -78 0
1 -73 -79 0
1 -74 -86 0
1 74 -80 0
1 -74 -75 0
1 -74 -78 0
1 -74 79 0
1 -75 74 0
1 -75 86 0
1 75 -76 0
1 -75 80 0
1 75 59 0
1 75 -78 0
1 75 79 0
1 -83 42 0
1 83 -73 0
1 83 -91 0
1 83 71 0
1 -83 -95 0
1 83 26 0
1 -83 -20 0
1 -83 -82 0
1 83 84 0
1 -83 81 0
1 83 -96 0
1 -83 -29 0
1 -84 -42 0
1 -84 95 0
1 -84 -77 0
1 -84 -26 0
1 -84 20 0
1 -84 -73 0
1 84 -81 0
1 84 96 0
1 -84 -29 0
1 -93 42 0
1 93 -90 0
1 -93 -71 0
1 -93 77 0
1 -93 -73 0
1 94 -93 0
1 -94 77 0
1 94 -82 0
1 94 89 0
1 94 -81 0
1 -94 96 0
1 77 -93 0
1 -77 -69 0
1 77 84 0
1 -77 -87 0
1 -77 -96 0
1 -96 -93 0
1 -96 -83 0
1 96 84 0
1 -96 87 0
1 -96 -68 0
1 95 93 0
1 95 83 0
1 -95 -66 0
1 -95 86 0
1 -95 -94 0
1 95 -84 0
1 95 -87 0
1 -81 -93 0
1 81 -83 0
1 -81 95 0
1 81 94 0
1 81 -84 0
1 81 -67 0
1 -81 87 0
